C2
1.0
   0.000000000000000    1.779337890766975    1.779337890766975
   1.779337890766975    0.000000000000000    1.779337890766975
   1.779337890766975    1.779337890766975    0.000000000000000
C
2
direct
   0.250000000000000    0.250000000000000    0.250000000000000 C
   0.000000000000000    0.000000000000000    0.000000000000000 C
